k = 80;
b = 40;
AtomicConstraints =  [|
12, 1|
	12, 11|
	13, 1|
	13, 11|
	13, 23|
	14, 23|
	14, 30|
	14, 31|
	15, 23|
	15, 30|
	15, 31|
	15, 32|
	16, 30|
	16, 31|
	16, 32|
	16, 33|
	17, 31|
	17, 32|
	17, 33|
	17, 34|
	18, 2|
	18, 32|
	18, 33|
	18, 34|
	19, 2|
	19, 3|
	19, 33|
	19, 34|
	20, 2|
	20, 3|
	20, 4|
	20, 34|
	21, 2|
	21, 3|
	21, 4|
	21, 5|
	22, 3|
	22, 4|
	22, 5|
	22, 6|
	24, 4|
	24, 5|
	24, 6|
	24, 7|
	25, 5|
	25, 6|
	25, 7|
	25, 8|
	26, 6|
	26, 7|
	26, 8|
	27, 7|
	27, 8|
	27, 9|
	28, 9|
	28, 10|
	29, 9|
	29, 10|
	54, 71|
	54, 63|
	54, 70|
	55, 71|
	55, 63|
	55, 70|
	56, 71|
	56, 70|
	35, 68|
	36, 68|
	36, 69|
	37, 68|
	37, 69|
	37, 49|
	44, 71|
	44, 68|
	44, 69|
	44, 49|
	44, 50|
	44, 55|
	44, 56|
	44, 35|
	44, 36|
	44, 37|
	44, 70|
	45, 71|
	45, 68|
	45, 69|
	45, 49|
	45, 50|
	45, 56|
	45, 35|
	45, 36|
	45, 37|
	75, 68|
	75, 69|
	75, 49|
	75, 50|
	75, 35|
	75, 36|
	75, 37|
	76, 68|
	76, 69|
	76, 49|
	76, 50|
	76, 35|
	76, 36|
	76, 37|
	77, 68|
	77, 69|
	77, 49|
	77, 50|
	77, 36|
	77, 37|
	60, 54|
	60, 71|
	60, 68|
	60, 69|
	60, 49|
	60, 50|
	60, 55|
	60, 56|
	60, 35|
	60, 36|
	60, 37|
	60, 63|
	60, 70|
	60, 44|
	60, 42|
	60, 43|
	61, 54|
	61, 71|
	61, 68|
	61, 69|
	61, 49|
	61, 50|
	61, 55|
	61, 56|
	61, 35|
	61, 36|
	61, 37|
	61, 63|
	61, 70|
	61, 44|
	61, 45|
	61, 42|
	61, 43|
	62, 71|
	62, 68|
	62, 69|
	62, 49|
	62, 50|
	62, 55|
	62, 56|
	62, 35|
	62, 36|
	62, 37|
	62, 70|
	62, 44|
	62, 45|
	62, 75|
	62, 43|
	64, 71|
	64, 68|
	64, 69|
	64, 49|
	64, 50|
	64, 56|
	64, 35|
	64, 36|
	64, 37|
	64, 44|
	64, 45|
	64, 75|
	64, 76|
	42, 54|
	42, 71|
	42, 68|
	42, 69|
	42, 49|
	42, 50|
	42, 55|
	42, 56|
	42, 35|
	42, 36|
	42, 37|
	42, 63|
	42, 70|
	43, 54|
	43, 71|
	43, 68|
	43, 69|
	43, 49|
	43, 50|
	43, 55|
	43, 56|
	43, 35|
	43, 36|
	43, 37|
	43, 63|
	43, 70|
	48, 71|
	48, 68|
	48, 69|
	48, 49|
	48, 50|
	48, 56|
	48, 35|
	48, 36|
	48, 37|
	48, 44|
	48, 45|
	48, 75|
	48, 76|
	48, 77|
	48, 61|
	48, 62|
	48, 64|
	48, 43|
	65, 54|
	65, 71|
	65, 68|
	65, 69|
	65, 49|
	65, 50|
	65, 55|
	65, 56|
	65, 35|
	65, 36|
	65, 37|
	65, 63|
	65, 70|
	65, 60|
	65, 44|
	65, 45|
	65, 75|
	65, 76|
	65, 77|
	65, 61|
	65, 62|
	65, 64|
	65, 42|
	65, 43|
	65, 48|
	65, 46|
	65, 47|
	66, 71|
	66, 68|
	66, 69|
	66, 49|
	66, 50|
	66, 55|
	66, 56|
	66, 35|
	66, 36|
	66, 37|
	66, 70|
	66, 60|
	66, 44|
	66, 45|
	66, 75|
	66, 76|
	66, 77|
	66, 61|
	66, 62|
	66, 64|
	66, 42|
	66, 43|
	66, 48|
	66, 46|
	66, 47|
	67, 71|
	67, 68|
	67, 69|
	67, 49|
	67, 50|
	67, 56|
	67, 35|
	67, 36|
	67, 37|
	67, 44|
	67, 45|
	67, 75|
	67, 76|
	67, 77|
	67, 61|
	67, 62|
	67, 64|
	67, 43|
	67, 48|
	67, 47|
	38, 68|
	38, 69|
	38, 49|
	38, 50|
	38, 35|
	38, 36|
	38, 37|
	38, 45|
	38, 75|
	38, 76|
	38, 77|
	38, 64|
	39, 68|
	39, 69|
	39, 49|
	39, 50|
	39, 35|
	39, 36|
	39, 37|
	39, 75|
	39, 76|
	39, 77|
	40, 68|
	40, 69|
	40, 49|
	40, 50|
	40, 36|
	40, 37|
	40, 76|
	40, 77|
	46, 54|
	46, 71|
	46, 68|
	46, 69|
	46, 49|
	46, 50|
	46, 55|
	46, 56|
	46, 35|
	46, 36|
	46, 37|
	46, 63|
	46, 70|
	46, 60|
	46, 44|
	46, 45|
	46, 75|
	46, 76|
	46, 77|
	46, 61|
	46, 62|
	46, 64|
	46, 42|
	46, 43|
	47, 71|
	47, 68|
	47, 69|
	47, 49|
	47, 50|
	47, 55|
	47, 56|
	47, 35|
	47, 36|
	47, 37|
	47, 70|
	47, 60|
	47, 44|
	47, 45|
	47, 75|
	47, 76|
	47, 77|
	47, 61|
	47, 62|
	47, 64|
	47, 42|
	47, 43|
	74, 68|
	74, 69|
	74, 49|
	74, 50|
	74, 35|
	74, 36|
	74, 37|
	74, 44|
	74, 45|
	74, 75|
	74, 76|
	74, 77|
	74, 62|
	74, 64|
	74, 48|
	74, 66|
	74, 67|
	74, 38|
	74, 39|
	74, 40|
	74, 47|
	78, 68|
	78, 69|
	78, 49|
	78, 50|
	78, 35|
	78, 36|
	78, 37|
	78, 45|
	78, 75|
	78, 76|
	78, 77|
	78, 64|
	78, 48|
	78, 67|
	78, 38|
	78, 39|
	78, 40|
	79, 68|
	79, 69|
	79, 49|
	79, 50|
	79, 35|
	79, 36|
	79, 37|
	79, 75|
	79, 76|
	79, 77|
	79, 38|
	79, 39|
	79, 40|
	80, 68|
	80, 69|
	80, 49|
	80, 50|
	80, 35|
	80, 36|
	80, 37|
	80, 75|
	80, 76|
	80, 77|
	80, 38|
	80, 39|
	80, 40|
	53, 68|
	53, 69|
	53, 49|
	53, 50|
	53, 36|
	53, 37|
	53, 76|
	53, 77|
	53, 39|
	53, 40|
	52, 69|
	52, 49|
	52, 50|
	52, 37|
	52, 77|
	52, 40|
	41, 49|
	41, 50|
	51, 50|
	57, 71|
	57, 68|
	57, 69|
	57, 49|
	57, 50|
	57, 55|
	57, 56|
	57, 35|
	57, 36|
	57, 37|
	57, 70|
	57, 60|
	57, 44|
	57, 45|
	57, 75|
	57, 76|
	57, 77|
	57, 61|
	57, 62|
	57, 64|
	57, 42|
	57, 43|
	57, 65|
	57, 48|
	57, 66|
	57, 67|
	57, 38|
	57, 39|
	57, 40|
	57, 46|
	57, 47|
	57, 74|
	57, 72|
	57, 73|
	58, 71|
	58, 68|
	58, 69|
	58, 49|
	58, 50|
	58, 56|
	58, 35|
	58, 36|
	58, 37|
	58, 44|
	58, 45|
	58, 75|
	58, 76|
	58, 77|
	58, 61|
	58, 62|
	58, 64|
	58, 43|
	58, 65|
	58, 48|
	58, 66|
	58, 67|
	58, 38|
	58, 39|
	58, 40|
	58, 46|
	58, 47|
	58, 74|
	58, 78|
	58, 72|
	58, 73|
	59, 68|
	59, 69|
	59, 49|
	59, 50|
	59, 35|
	59, 36|
	59, 37|
	59, 44|
	59, 45|
	59, 75|
	59, 76|
	59, 77|
	59, 62|
	59, 64|
	59, 48|
	59, 66|
	59, 67|
	59, 38|
	59, 39|
	59, 40|
	59, 47|
	59, 74|
	59, 78|
	59, 79|
	59, 73|
	72, 71|
	72, 68|
	72, 69|
	72, 49|
	72, 50|
	72, 55|
	72, 56|
	72, 35|
	72, 36|
	72, 37|
	72, 70|
	72, 60|
	72, 44|
	72, 45|
	72, 75|
	72, 76|
	72, 77|
	72, 61|
	72, 62|
	72, 64|
	72, 42|
	72, 43|
	72, 65|
	72, 48|
	72, 66|
	72, 67|
	72, 38|
	72, 39|
	72, 40|
	72, 46|
	72, 47|
	73, 71|
	73, 68|
	73, 69|
	73, 49|
	73, 50|
	73, 56|
	73, 35|
	73, 36|
	73, 37|
	73, 44|
	73, 45|
	73, 75|
	73, 76|
	73, 77|
	73, 61|
	73, 62|
	73, 64|
	73, 43|
	73, 65|
	73, 48|
	73, 66|
	73, 67|
	73, 38|
	73, 39|
	73, 40|
	73, 46|
	73, 47|];
DisjunctiveConstraints =  [|2, 34, 2, 3|
	3, 2, 3, 4|
	4, 3, 4, 5|
	5, 4, 5, 6|
	6, 5, 6, 7|
	7, 6, 7, 8|
	8, 7, 8, 9|
	9, 8, 9, 10|
	13, 12, 13, 14|
	11, 1, 11, 23|
	14, 13, 14, 15|
	15, 14, 15, 16|
	16, 15, 16, 17|
	17, 16, 17, 18|
	18, 17, 18, 19|
	19, 18, 19, 20|
	20, 19, 20, 21|
	21, 20, 21, 22|
	22, 21, 22, 24|
	24, 22, 24, 25|
	25, 24, 25, 26|
	26, 25, 26, 27|
	27, 26, 27, 28|
	28, 27, 28, 29|
	23, 11, 23, 30|
	30, 23, 30, 31|
	31, 30, 31, 32|
	32, 31, 32, 33|
	33, 32, 33, 34|
	34, 33, 34, 2|
	69, 68, 69, 49|
	49, 69, 49, 50|
	55, 54, 55, 56|
	56, 55, 56, 35|
	35, 56, 35, 36|
	36, 35, 36, 37|
	70, 63, 70, 71|
	44, 16, 44, 56|
	44, 31, 44, 71|
	44, 55, 15, 44|
	44, 70, 30, 44|
	44, 43, 44, 45|
	45, 71, 31, 45|
	45, 56, 16, 45|
	45, 44, 45, 75|
	75, 45, 75, 76|
	76, 28, 76, 68|
	76, 35, 75, 76|
	76, 75, 76, 77|
	77, 28, 77, 68|
	77, 29, 77, 69|
	77, 36, 76, 77|
	60, 14, 60, 54|
	60, 15, 60, 55|
	60, 23, 60, 63|
	60, 30, 60, 70|
	61, 15, 61, 55|
	61, 16, 61, 56|
	61, 30, 61, 70|
	61, 31, 61, 71|
	61, 54, 14, 61|
	61, 63, 23, 61|
	61, 60, 61, 62|
	62, 16, 62, 56|
	62, 31, 62, 71|
	62, 55, 15, 62|
	62, 63, 23, 62|
	62, 70, 30, 62|
	62, 61, 62, 64|
	64, 71, 31, 64|
	64, 55, 15, 64|
	64, 56, 16, 64|
	64, 70, 30, 64|
	42, 14, 42, 54|
	42, 15, 42, 55|
	42, 23, 42, 63|
	42, 30, 42, 70|
	43, 15, 43, 55|
	43, 16, 43, 56|
	43, 30, 43, 70|
	43, 31, 43, 71|
	43, 54, 14, 43|
	43, 63, 23, 43|
	43, 42, 43, 44|
	48, 4, 48, 44|
	48, 5, 48, 45|
	48, 22, 48, 62|
	48, 24, 48, 64|
	48, 54, 14, 48|
	48, 63, 23, 48|
	48, 61, 21, 48|
	48, 42, 2, 48|
	48, 43, 3, 48|
	65, 2, 65, 42|
	65, 3, 65, 43|
	65, 15, 65, 55|
	65, 20, 65, 60|
	65, 21, 65, 61|
	65, 30, 65, 70|
	66, 3, 66, 43|
	66, 4, 66, 44|
	66, 16, 66, 56|
	66, 21, 66, 61|
	66, 22, 66, 62|
	66, 31, 66, 71|
	66, 60, 20, 66|
	66, 42, 2, 66|
	66, 65, 66, 67|
	67, 4, 67, 44|
	67, 5, 67, 45|
	67, 22, 67, 62|
	67, 24, 67, 64|
	67, 54, 14, 67|
	67, 60, 20, 67|
	67, 61, 21, 67|
	67, 42, 2, 67|
	67, 43, 3, 67|
	67, 66, 67, 38|
	38, 71, 31, 38|
	38, 55, 15, 38|
	38, 56, 16, 38|
	38, 35, 38, 75|
	38, 70, 30, 38|
	38, 44, 4, 38|
	38, 45, 5, 38|
	38, 64, 24, 38|
	38, 67, 38, 39|
	39, 28, 39, 68|
	39, 71, 31, 39|
	39, 56, 16, 39|
	39, 36, 39, 76|
	39, 45, 5, 39|
	39, 75, 35, 39|
	39, 38, 39, 40|
	40, 29, 40, 69|
	40, 35, 75, 40|
	40, 37, 40, 77|
	40, 75, 35, 40|
	40, 76, 36, 40|
	46, 2, 46, 42|
	46, 3, 46, 43|
	46, 15, 46, 55|
	46, 20, 46, 60|
	46, 21, 46, 61|
	46, 30, 46, 70|
	47, 3, 47, 43|
	47, 4, 47, 44|
	47, 16, 47, 56|
	47, 21, 47, 61|
	47, 22, 47, 62|
	47, 31, 47, 71|
	47, 60, 20, 47|
	47, 42, 2, 47|
	47, 46, 47, 48|
	74, 5, 74, 45|
	74, 24, 74, 64|
	74, 27, 74, 67|
	74, 60, 20, 74|
	74, 48, 74, 8|
	74, 66, 26, 74|
	74, 46, 6, 74|
	74, 47, 7, 74|
	74, 73, 74, 78|
	78, 60, 20, 78|
	78, 61, 21, 78|
	78, 42, 2, 78|
	78, 43, 3, 78|
	78, 48, 8, 78|
	78, 67, 27, 78|
	78, 47, 7, 78|
	78, 74, 78, 79|
	79, 28, 79, 68|
	79, 54, 14, 79|
	79, 35, 79, 75|
	79, 63, 23, 79|
	79, 44, 4, 79|
	79, 61, 21, 79|
	79, 62, 22, 79|
	79, 43, 3, 79|
	79, 48, 8, 79|
	79, 38, 79, 78|
	79, 78, 79, 80|
	80, 28, 80, 68|
	80, 29, 80, 69|
	80, 55, 15, 80|
	80, 36, 80, 76|
	80, 70, 30, 80|
	80, 44, 4, 80|
	80, 45, 5, 80|
	80, 62, 22, 80|
	80, 64, 24, 80|
	80, 38, 78, 80|
	80, 39, 80, 79|
	80, 79, 80, 53|
	53, 9, 53, 49|
	53, 29, 53, 69|
	53, 71, 31, 53|
	53, 56, 16, 53|
	53, 37, 53, 77|
	53, 45, 5, 53|
	53, 75, 35, 53|
	53, 64, 24, 53|
	53, 39, 79, 53|
	53, 40, 53, 80|
	53, 80, 53, 52|
	52, 9, 52, 49|
	52, 50, 52, 10|
	52, 75, 35, 52|
	52, 76, 36, 52|
	52, 40, 80, 52|
	52, 53, 52, 41|
	41, 50, 41, 10|
	41, 35, 75, 41|
	41, 76, 36, 41|
	41, 77, 37, 41|
	41, 52, 41, 51|
	51, 36, 76, 51|
	51, 37, 77, 51|
	51, 77, 37, 51|
	57, 3, 57, 43|
	57, 15, 57, 55|
	57, 16, 57, 56|
	57, 21, 57, 61|
	57, 25, 57, 65|
	57, 26, 57, 66|
	57, 30, 57, 70|
	57, 31, 57, 71|
	57, 46, 57, 6|
	57, 47, 57, 7|
	58, 4, 58, 44|
	58, 16, 58, 56|
	58, 22, 58, 62|
	58, 26, 58, 66|
	58, 27, 58, 67|
	58, 48, 58, 8|
	58, 65, 25, 58|
	58, 46, 6, 58|
	58, 47, 58, 7|
	58, 57, 58, 59|
	59, 5, 59, 45|
	59, 24, 59, 64|
	59, 27, 59, 67|
	59, 48, 59, 8|
	59, 65, 25, 59|
	59, 66, 26, 59|
	59, 46, 6, 59|
	59, 47, 7, 59|
	72, 3, 72, 43|
	72, 15, 72, 55|
	72, 16, 72, 56|
	72, 21, 72, 61|
	72, 25, 72, 65|
	72, 26, 72, 66|
	72, 30, 72, 70|
	72, 31, 72, 71|
	72, 46, 72, 6|
	72, 47, 72, 7|
	73, 4, 73, 44|
	73, 16, 73, 56|
	73, 22, 73, 62|
	73, 26, 73, 66|
	73, 27, 73, 67|
	73, 31, 73, 71|
	73, 48, 73, 8|
	73, 65, 25, 73|
	73, 46, 6, 73|
	73, 47, 73, 7|
	73, 72, 73, 74|];
SoftAtomicConstraints =  [|
34, 2|
2, 3|
3, 4|
4, 5|
5, 6|
6, 7|
7, 8|
8, 9|
9, 10|
1, 11|
12, 13|
13, 14|
14, 15|
15, 16|
16, 17|
17, 18|
18, 19|
19, 20|
20, 21|
21, 22|
11, 23|
22, 24|
24, 25|
25, 26|
26, 27|
27, 28|
28, 29|
23, 30|
30, 31|
31, 32|
32, 33|
33, 34|
56, 35|
35, 36|
36, 37|
67, 38|
38, 39|
39, 40|
52, 41|
42, 43|
43, 44|
44, 45|
46, 47|
47, 48|
69, 49|
49, 50|
41, 51|
53, 52|
80, 53|
54, 55|
55, 56|
57, 58|
58, 59|
60, 61|
61, 62|
62, 64|
65, 66|
66, 67|
71, 68|
68, 69|
63, 70|
70, 71|
72, 73|
73, 74|
45, 75|
75, 76|
76, 77|
74, 78|
78, 79|
79, 80|];
DirectSuccessors =  [];
